NAME: ftv38 
TYPE: TSP
COMMENT: NO_COMMENT
DIMENSION:  78
EDGE_WEIGHT_TYPE: EXPLICIT
EDGE_WEIGHT_FORMAT: FULL_MATRIX
DISPLAY_DATA_TYPE: NO_DISPLAY
EDGE_WEIGHT_SECTION
 99999 99999 99999 99999 99999 99999 99999 99999 99999 99999 99999 99999 99999 99999 99999 99999 99999 99999 99999 99999 99999 99999 99999 99999 99999 99999 99999 99999 99999 99999 99999 99999 99999 99999 99999 99999 99999 99999 99999    -1    66    43    27   106   109   157   143    75    95    79    42    83   204    38   151    13    38    31    22   108   127   153   179   212   184   148   153   173    30   112   144    94    66   129   113   146   102    81
 99999 99999 99999 99999 99999 99999 99999 99999 99999 99999 99999 99999 99999 99999 99999 99999 99999 99999 99999 99999 99999 99999 99999 99999 99999 99999 99999 99999 99999 99999 99999 99999 99999 99999 99999 99999 99999 99999 99999    26    -1    57    41   120   135   171   169   101   121   105    68   109   230    64   177    39    48    41    32   134   153   179   165   205   170   134   146   166    16    98   130    80    52   124   108   172   128    95
 99999 99999 99999 99999 99999 99999 99999 99999 99999 99999 99999 99999 99999 99999 99999 99999 99999 99999 99999 99999 99999 99999 99999 99999 99999 99999 99999 99999 99999 99999 99999 99999 99999 99999 99999 99999 99999 99999 99999    82    56    -1    62    63   161   114   132   157   177   161   124   165   286   120   221    95   104    97    88   190   209   235   199   239   204   168   180   200    72   132   164   114   101    86    70   228   184    38
 99999 99999 99999 99999 99999 99999 99999 99999 99999 99999 99999 99999 99999 99999 99999 99999 99999 99999 99999 99999 99999 99999 99999 99999 99999 99999 99999 99999 99999 99999 99999 99999 99999 99999 99999 99999 99999 99999 99999    65    39    16    -1    79   174   130   148   140   160   144   107   148   269   103   216    78    87    80    71   173   192   218   204   244   209   173   185   205    55   137   169   119    91   102    86   211   167    54
 99999 99999 99999 99999 99999 99999 99999 99999 99999 99999 99999 99999 99999 99999 99999 99999 99999 99999 99999 99999 99999 99999 99999 99999 99999 99999 99999 99999 99999 99999 99999 99999 99999 99999 99999 99999 99999 99999 99999   102    76    20    82    -1   142    95   113   176   196   181   144   185   306   140   202   115   124   117   108   210   229   255   219   259   224   188   200   220    92   152   184   134   121   106    51   248   203    58
 99999 99999 99999 99999 99999 99999 99999 99999 99999 99999 99999 99999 99999 99999 99999 99999 99999 99999 99999 99999 99999 99999 99999 99999 99999 99999 99999 99999 99999 99999 99999 99999 99999 99999 99999 99999 99999 99999 99999   100   109    53    97    33    -1    60    34    34    54    91    67   108   216    88    60    87   119   115   122   133   152   178   243   237   248   212   178   198   125   185   217   167   154   139    84   171    61    91
 99999 99999 99999 99999 99999 99999 99999 99999 99999 99999 99999 99999 99999 99999 99999 99999 99999 99999 99999 99999 99999 99999 99999 99999 99999 99999 99999 99999 99999 99999 99999 99999 99999 99999 99999 99999 99999 99999 99999   147   156   100   144    80    47    -1    31    81   101   138   114   155   255   135   107   134   166   162   169   180   199   225   290   284   295   259   225   245   172   232   256   214   201   186   131   218   108   138
 99999 99999 99999 99999 99999 99999 99999 99999 99999 99999 99999 99999 99999 99999 99999 99999 99999 99999 99999 99999 99999 99999 99999 99999 99999 99999 99999 99999 99999 99999 99999 99999 99999 99999 99999 99999 99999 99999 99999   134   140    84   131    64    34    40    -1    68    88   125   101   142   237   122    94   121   153   149   156   167   186   212   277   271   282   246   212   232   156   216   225   198   185   170   115   205    95   122
 99999 99999 99999 99999 99999 99999 99999 99999 99999 99999 99999 99999 99999 99999 99999 99999 99999 99999 99999 99999 99999 99999 99999 99999 99999 99999 99999 99999 99999 99999 99999 99999 99999 99999 99999 99999 99999 99999 99999    75   141    87   102    67    34    94    68    -1    20    57    33    74   182    63    76    62    94    90    97    99   118   144   209   203   214   178   144   164   105   187   219   169   141   173   118   137    27   125
 99999 99999 99999 99999 99999 99999 99999 99999 99999 99999 99999 99999 99999 99999 99999 99999 99999 99999 99999 99999 99999 99999 99999 99999 99999 99999 99999 99999 99999 99999 99999 99999 99999 99999 99999 99999 99999 99999 99999    69   135   107    96    87    54   114    88    20    -1    37    27    68   162    57    96    56    88    84    91    93   112   138   203   197   208   172   138   158    99   181   213   163   135   193   138   131     7   145
 99999 99999 99999 99999 99999 99999 99999 99999 99999 99999 99999 99999 99999 99999 99999 99999 99999 99999 99999 99999 99999 99999 99999 99999 99999 99999 99999 99999 99999 99999 99999 99999 99999 99999 99999 99999 99999 99999 99999   117   183   155   144   135   102   162   133    68    48    -1    75    88   125   105   144   104   136   132   139   113   132   158   223   217   228   192   158   178   147   223   261   211   183   241   186   151    55   193
 99999 99999 99999 99999 99999 99999 99999 99999 99999 99999 99999 99999 99999 99999 99999 99999 99999 99999 99999 99999 99999 99999 99999 99999 99999 99999 99999 99999 99999 99999 99999 99999 99999 99999 99999 99999 99999 99999 99999    42   108    85    69   100    67   127   101    33    53    37    -1    41   162    30   109    29    61    57    64    66    85   111   176   170   181   145   111   131    72   154   186   136   108   171   151   104    60   123
 99999 99999 99999 99999 99999 99999 99999 99999 99999 99999 99999 99999 99999 99999 99999 99999 99999 99999 99999 99999 99999 99999 99999 99999 99999 99999 99999 99999 99999 99999 99999 99999 99999 99999 99999 99999 99999 99999 99999    89   155   132   116   147   114   174   148    80   100    53    47    -1   123    77   156    76   108   104   111    85   104   130   195   189   200   164   130   150   119   195   233   183   155   218   198   123   107   170
 99999 99999 99999 99999 99999 99999 99999 99999 99999 99999 99999 99999 99999 99999 99999 99999 99999 99999 99999 99999 99999 99999 99999 99999 99999 99999 99999 99999 99999 99999 99999 99999 99999 99999 99999 99999 99999 99999 99999   125   190   168   152   208   175   235   209   141   158   114   108    61    -1    87   217   112   118   114   123    60    79   105   165   146   175   139   105   125   133   170   234   197   169   241   225    80   165   206
 99999 99999 99999 99999 99999 99999 99999 99999 99999 99999 99999 99999 99999 99999 99999 99999 99999 99999 99999 99999 99999 99999 99999 99999 99999 99999 99999 99999 99999 99999 99999 99999 99999 99999 99999 99999 99999 99999 99999    38   104    81    65   130    97   157   131    63    83    67    30    71   192    -1   139    25    31    27    36    96   115   141   206   200   211   175   141   161    68   150   182   132   104   167   151   134    90   119
 99999 99999 99999 99999 99999 99999 99999 99999 99999 99999 99999 99999 99999 99999 99999 99999 99999 99999 99999 99999 99999 99999 99999 99999 99999 99999 99999 99999 99999 99999 99999 99999 99999 99999 99999 99999 99999 99999 99999    40    76    53    37   116    97   157   131    63    83    67    30    71   192    28    -1    27    59    55    62    96   115   141   206   200   211   175   141   161    70   152   184   134   106   139   123   134    90    91
 99999 99999 99999 99999 99999 99999 99999 99999 99999 99999 99999 99999 99999 99999 99999 99999 99999 99999 99999 99999 99999 99999 99999 99999 99999 99999 99999 99999 99999 99999 99999 99999 99999 99999 99999 99999 99999 99999 99999    13    79    56    40   119    96   156   130    62    82    66    29    70   191    25   138    -1    32    28    35    95   114   140   192   199   197   161   140   160    43   125   157   107    79   142   126   133    89    94
 99999 99999 99999 99999 99999 99999 99999 99999 99999 99999 99999 99999 99999 99999 99999 99999 99999 99999 99999 99999 99999 99999 99999 99999 99999 99999 99999 99999 99999 99999 99999 99999 99999 99999 99999 99999 99999 99999 99999    38   104    81    65   144   128   188   162    94   114    98    61   102   223    31   170    32    -1     7    16   127   146   172   199   231   204   168   172   192    50   132   164   114    86   158   142   165   121   119
 99999 99999 99999 99999 99999 99999 99999 99999 99999 99999 99999 99999 99999 99999 99999 99999 99999 99999 99999 99999 99999 99999 99999 99999 99999 99999 99999 99999 99999 99999 99999 99999 99999 99999 99999 99999 99999 99999 99999    31    97    74    58   137   135   188   169   101   121   105    68   109   230    38   177    39     7    -1     9   134   153   179   192   232   197   161   173   193    43   125   157   107    79   151   135   172   128   112
 99999 99999 99999 99999 99999 99999 99999 99999 99999 99999 99999 99999 99999 99999 99999 99999 99999 99999 99999 99999 99999 99999 99999 99999 99999 99999 99999 99999 99999 99999 99999 99999 99999 99999 99999 99999 99999 99999 99999    22    88    65    49   128   131   179   165    97   117   101    64   105   226    47   173    35    16     9    -1   130   149   175   183   223   188   152   164   184    34   116   148    98    70   142   126   168   124   103
 99999 99999 99999 99999 99999 99999 99999 99999 99999 99999 99999 99999 99999 99999 99999 99999 99999 99999 99999 99999 99999 99999 99999 99999 99999 99999 99999 99999 99999 99999 99999 99999 99999 99999 99999 99999 99999 99999 99999   103   130   146   130   209   198   258   232   164   184   137   131    84   144   110   240   116   123   116   107    -1    19    45   110   104   115    79    45    65    73   110   174   137   109   181   165    38   191   184
 99999 99999 99999 99999 99999 99999 99999 99999 99999 99999 99999 99999 99999 99999 99999 99999 99999 99999 99999 99999 99999 99999 99999 99999 99999 99999 99999 99999 99999 99999 99999 99999 99999 99999 99999 99999 99999 99999 99999   143   176   186   170   226   193   253   227   159   179   132   126    79   139   105   235   130   136   132   141    46    -1    57   112    93   150   125    91   111   119   156   209   183   155   227   211    27   186   224
 99999 99999 99999 99999 99999 99999 99999 99999 99999 99999 99999 99999 99999 99999 99999 99999 99999 99999 99999 99999 99999 99999 99999 99999 99999 99999 99999 99999 99999 99999 99999 99999 99999 99999 99999 99999 99999 99999 99999    94   121   137   121   200   203   251   237   169   189   149   136    96   156   122   245   107   114   107    98    63    17    -1    82    63   106    70    36    56    64   101   165   128   100   172   156    44   196   175
 99999 99999 99999 99999 99999 99999 99999 99999 99999 99999 99999 99999 99999 99999 99999 99999 99999 99999 99999 99999 99999 99999 99999 99999 99999 99999 99999 99999 99999 99999 99999 99999 99999 99999 99999 99999 99999 99999 99999   104   131   147   131   189   213   239   247   179   199   183   146   144   184   142   255   117   124   117   108   116    70    53    -1    40    72    36    46    66    74    67   131   110    82   154   138    75   206   165
 99999 99999 99999 99999 99999 99999 99999 99999 99999 99999 99999 99999 99999 99999 99999 99999 99999 99999 99999 99999 99999 99999 99999 99999 99999 99999 99999 99999 99999 99999 99999 99999 99999 99999 99999 99999 99999 99999 99999   123   150   166   150   208   232   258   266   198   218   202   165   163   165   161   274   136   143   136   127   135    89    72    19    -1    57    55    65    85    93    86   116   129   101   173   157    76   225   184
 99999 99999 99999 99999 99999 99999 99999 99999 99999 99999 99999 99999 99999 99999 99999 99999 99999 99999 99999 99999 99999 99999 99999 99999 99999 99999 99999 99999 99999 99999 99999 99999 99999 99999 99999 99999 99999 99999 99999   140   167   183   167   195   249   245   263   215   235   219   182   190   230   178   291   153   160   153   144   162   116    99    46    67    -1    82    92   112   110    73    59    81    88   160   144   121   242   171
 99999 99999 99999 99999 99999 99999 99999 99999 99999 99999 99999 99999 99999 99999 99999 99999 99999 99999 99999 99999 99999 99999 99999 99999 99999 99999 99999 99999 99999 99999 99999 99999 99999 99999 99999 99999 99999 99999 99999    98   125   141   125   153   207   203   221   173   193   177   140   175   215   136   249   111   118   111   102   147   101    84    31    71    36    -1    77    97    68    31    95    74    46   118   102   106   200   129
 99999 99999 99999 99999 99999 99999 99999 99999 99999 99999 99999 99999 99999 99999 99999 99999 99999 99999 99999 99999 99999 99999 99999 99999 99999 99999 99999 99999 99999 99999 99999 99999 99999 99999 99999 99999 99999 99999 99999    58    85   101    85   164   167   215   201   133   153   137   100   141   249    96   209    71    78    71    62   166   135   118    65   105    70    34    -1    20    28    65   129    92    64   136   120   140   160   139
 99999 99999 99999 99999 99999 99999 99999 99999 99999 99999 99999 99999 99999 99999 99999 99999 99999 99999 99999 99999 99999 99999 99999 99999 99999 99999 99999 99999 99999 99999 99999 99999 99999 99999 99999 99999 99999 99999 99999    38    65    81    65   144   147   195   181   113   133   117    80   121   242    76   189    51    58    51    42   146   148   131    78   118    83    47    59    -1     8    78   122    72    44   116   100   153   140   119
 99999 99999 99999 99999 99999 99999 99999 99999 99999 99999 99999 99999 99999 99999 99999 99999 99999 99999 99999 99999 99999 99999 99999 99999 99999 99999 99999 99999 99999 99999 99999 99999 99999 99999 99999 99999 99999 99999 99999    30    57    73    57   136   139   187   173   105   125   109    72   113   234    68   181    43    50    43    34   138   157   183   149   189   154   118   130   150    -1    82   114    64    36   108    92   176   132   111
 99999 99999 99999 99999 99999 99999 99999 99999 99999 99999 99999 99999 99999 99999 99999 99999 99999 99999 99999 99999 99999 99999 99999 99999 99999 99999 99999 99999 99999 99999 99999 99999 99999 99999 99999 99999 99999 99999 99999    67    94   110    94   122   176   172   190   142   162   146   109   150   251   105   218    80    87    80    71   175   137   120    67   107    72    36    48    68    37    -1    93    43    15    87    71   142   169    98
 99999 99999 99999 99999 99999 99999 99999 99999 99999 99999 99999 99999 99999 99999 99999 99999 99999 99999 99999 99999 99999 99999 99999 99999 99999 99999 99999 99999 99999 99999 99999 99999 99999 99999 99999 99999 99999 99999 99999   120   147   163   147   175   229   207   225   195   215   199   162   203   282   158   271   133   140   133   124   221   175   158   105   117    59    89   101   121    90    53    -1    57    68   140   124   180   222   151
 99999 99999 99999 99999 99999 99999 99999 99999 99999 99999 99999 99999 99999 99999 99999 99999 99999 99999 99999 99999 99999 99999 99999 99999 99999 99999 99999 99999 99999 99999 99999 99999 99999 99999 99999 99999 99999 99999 99999   149   160   164   166   144   222   175   193   224   244   228   191   232   332   187   282   162   169   162   153   257   219   202   149   167   109   118   130   150   119    82    50    -1    97   168    93   224   251   120
 99999 99999 99999 99999 99999 99999 99999 99999 99999 99999 99999 99999 99999 99999 99999 99999 99999 99999 99999 99999 99999 99999 99999 99999 99999 99999 99999 99999 99999 99999 99999 99999 99999 99999 99999 99999 99999 99999 99999   100    80   102    86   107   204   157   175   175   195   179   142   183   297   138   251   113   120   113   104   208   183   166   113   153   118    82    94   114    70    46    78    28    -1    72    56   188   202    83
 99999 99999 99999 99999 99999 99999 99999 99999 99999 99999 99999 99999 99999 99999 99999 99999 99999 99999 99999 99999 99999 99999 99999 99999 99999 99999 99999 99999 99999 99999 99999 99999 99999 99999 99999 99999 99999 99999 99999   141   162   166   168   146   224   177   195   216   236   220   183   224   325   179   284   154   161   154   145   249   211   194   141   181   146   110   122   142   111    74    92    56    89    -1    95   216   243   122
 99999 99999 99999 99999 99999 99999 99999 99999 99999 99999 99999 99999 99999 99999 99999 99999 99999 99999 99999 99999 99999 99999 99999 99999 99999 99999 99999 99999 99999 99999 99999 99999 99999 99999 99999 99999 99999 99999 99999    93    67    71    73    51   148   101   119   168   188   172   135   176   297   131   208   106   115   108    99   201   220   241   188   228   193   157   169   189    83   121   147   103    90    75    -1   239   195    27
 99999 99999 99999 99999 99999 99999 99999 99999 99999 99999 99999 99999 99999 99999 99999 99999 99999 99999 99999 99999 99999 99999 99999 99999 99999 99999 99999 99999 99999 99999 99999 99999 99999 99999 99999 99999 99999 99999 99999   162   189   205   189   268   235   295   269   201   221   174   168   121   113   147   277   172   178   174   166   120    85    68    95    76   133   131   104   124   132   162   192   196   168   240   224    -1   228   243
 99999 99999 99999 99999 99999 99999 99999 99999 99999 99999 99999 99999 99999 99999 99999 99999 99999 99999 99999 99999 99999 99999 99999 99999 99999 99999 99999 99999 99999 99999 99999 99999 99999 99999 99999 99999 99999 99999 99999    62   128   105    89    93    60   120    94    26    46    57    20    61   182    50   102    49    81    77    84    86   105   131   196   190   201   165   131   151    92   174   206   156   128   191   144   124    -1   143
 99999 99999 99999 99999 99999 99999 99999 99999 99999 99999 99999 99999 99999 99999 99999 99999 99999 99999 99999 99999 99999 99999 99999 99999 99999 99999 99999 99999 99999 99999 99999 99999 99999 99999 99999 99999 99999 99999 99999    66    40    62    46    83   175   133   151   141   161   145   108   149   270   104   217    79    88    81    72   174   193   214   161   201   166   130   142   162    56    94   126    76    63    48    32   212   168    -1
    -1    26    82    65   102   100   147   134    75    69   117    42    89   125    38    40    13    38    31    22   103   143    94   104   123   140    98    58    38    30    67   120   149   100   141    93   162    62    66 99999 99999 99999 99999 99999 99999 99999 99999 99999 99999 99999 99999 99999 99999 99999 99999 99999 99999 99999 99999 99999 99999 99999 99999 99999 99999 99999 99999 99999 99999 99999 99999 99999 99999 99999 99999 99999 99999 99999
    66    -1    56    39    76   109   156   140   141   135   183   108   155   190   104    76    79   104    97    88   130   176   121   131   150   167   125    85    65    57    94   147   160    80   162    67   189   128    40 99999 99999 99999 99999 99999 99999 99999 99999 99999 99999 99999 99999 99999 99999 99999 99999 99999 99999 99999 99999 99999 99999 99999 99999 99999 99999 99999 99999 99999 99999 99999 99999 99999 99999 99999 99999 99999 99999 99999
    43    57    -1    16    20    53   100    84    87   107   155    85   132   168    81    53    56    81    74    65   146   186   137   147   166   183   141   101    81    73   110   163   164   102   166    71   205   105    62 99999 99999 99999 99999 99999 99999 99999 99999 99999 99999 99999 99999 99999 99999 99999 99999 99999 99999 99999 99999 99999 99999 99999 99999 99999 99999 99999 99999 99999 99999 99999 99999 99999 99999 99999 99999 99999 99999 99999
    27    41    62    -1    82    97   144   131   102    96   144    69   116   152    65    37    40    65    58    49   130   170   121   131   150   167   125    85    65    57    94   147   166    86   168    73   189    89    46 99999 99999 99999 99999 99999 99999 99999 99999 99999 99999 99999 99999 99999 99999 99999 99999 99999 99999 99999 99999 99999 99999 99999 99999 99999 99999 99999 99999 99999 99999 99999 99999 99999 99999 99999 99999 99999 99999 99999
   106   120    63    79    -1    33    80    64    67    87   135   100   147   208   130   116   119   144   137   128   209   226   200   189   208   195   153   164   144   136   122   175   144   107   146    51   268    93    83 99999 99999 99999 99999 99999 99999 99999 99999 99999 99999 99999 99999 99999 99999 99999 99999 99999 99999 99999 99999 99999 99999 99999 99999 99999 99999 99999 99999 99999 99999 99999 99999 99999 99999 99999 99999 99999 99999 99999
   109   135   161   174   142    -1    47    34    34    54   102    67   114   175    97    97    96   128   135   131   198   193   203   213   232   249   207   167   147   139   176   229   222   204   224   148   235    60   175 99999 99999 99999 99999 99999 99999 99999 99999 99999 99999 99999 99999 99999 99999 99999 99999 99999 99999 99999 99999 99999 99999 99999 99999 99999 99999 99999 99999 99999 99999 99999 99999 99999 99999 99999 99999 99999 99999 99999
   157   171   114   130    95    60    -1    40    94   114   162   127   174   235   157   157   156   188   188   179   258   253   251   239   258   245   203   215   195   187   172   207   175   157   177   101   295   120   133 99999 99999 99999 99999 99999 99999 99999 99999 99999 99999 99999 99999 99999 99999 99999 99999 99999 99999 99999 99999 99999 99999 99999 99999 99999 99999 99999 99999 99999 99999 99999 99999 99999 99999 99999 99999 99999 99999 99999
   143   169   132   148   113    34    31    -1    68    88   133   101   148   209   131   131   130   162   169   165   232   227   237   247   266   263   221   201   181   173   190   225   193   175   195   119   269    94   151 99999 99999 99999 99999 99999 99999 99999 99999 99999 99999 99999 99999 99999 99999 99999 99999 99999 99999 99999 99999 99999 99999 99999 99999 99999 99999 99999 99999 99999 99999 99999 99999 99999 99999 99999 99999 99999 99999 99999
    75   101   157   140   176    34    81    68    -1    20    68    33    80   141    63    63    62    94   101    97   164   159   169   179   198   215   173   133   113   105   142   195   224   175   216   168   201    26   141 99999 99999 99999 99999 99999 99999 99999 99999 99999 99999 99999 99999 99999 99999 99999 99999 99999 99999 99999 99999 99999 99999 99999 99999 99999 99999 99999 99999 99999 99999 99999 99999 99999 99999 99999 99999 99999 99999 99999
    95   121   177   160   196    54   101    88    20    -1    48    53   100   158    83    83    82   114   121   117   184   179   189   199   218   235   193   153   133   125   162   215   244   195   236   188   221    46   161 99999 99999 99999 99999 99999 99999 99999 99999 99999 99999 99999 99999 99999 99999 99999 99999 99999 99999 99999 99999 99999 99999 99999 99999 99999 99999 99999 99999 99999 99999 99999 99999 99999 99999 99999 99999 99999 99999 99999
    79   105   161   144   181    91   138   125    57    37    -1    37    53   114    67    67    66    98   105   101   137   132   149   183   202   219   177   137   117   109   146   199   228   179   220   172   174    57   145 99999 99999 99999 99999 99999 99999 99999 99999 99999 99999 99999 99999 99999 99999 99999 99999 99999 99999 99999 99999 99999 99999 99999 99999 99999 99999 99999 99999 99999 99999 99999 99999 99999 99999 99999 99999 99999 99999 99999
    42    68   124   107   144    67   114   101    33    27    75    -1    47   108    30    30    29    61    68    64   131   126   136   146   165   182   140   100    80    72   109   162   191   142   183   135   168    20   108 99999 99999 99999 99999 99999 99999 99999 99999 99999 99999 99999 99999 99999 99999 99999 99999 99999 99999 99999 99999 99999 99999 99999 99999 99999 99999 99999 99999 99999 99999 99999 99999 99999 99999 99999 99999 99999 99999 99999
    83   109   165   148   185   108   155   142    74    68    88    41    -1    61    71    71    70   102   109   105    84    79    96   144   163   190   175   141   121   113   150   203   232   183   224   176   121    61   149 99999 99999 99999 99999 99999 99999 99999 99999 99999 99999 99999 99999 99999 99999 99999 99999 99999 99999 99999 99999 99999 99999 99999 99999 99999 99999 99999 99999 99999 99999 99999 99999 99999 99999 99999 99999 99999 99999 99999
   204   230   286   269   306   216   255   237   182   162   125   162   123    -1   192   192   191   223   230   226   144   139   156   184   165   230   215   249   242   234   251   282   332   297   325   297   113   182   270 99999 99999 99999 99999 99999 99999 99999 99999 99999 99999 99999 99999 99999 99999 99999 99999 99999 99999 99999 99999 99999 99999 99999 99999 99999 99999 99999 99999 99999 99999 99999 99999 99999 99999 99999 99999 99999 99999 99999
    38    64   120   103   140    88   135   122    63    57   105    30    77    87    -1    28    25    31    38    47   110   105   122   142   161   178   136    96    76    68   105   158   187   138   179   131   147    50   104 99999 99999 99999 99999 99999 99999 99999 99999 99999 99999 99999 99999 99999 99999 99999 99999 99999 99999 99999 99999 99999 99999 99999 99999 99999 99999 99999 99999 99999 99999 99999 99999 99999 99999 99999 99999 99999 99999 99999
   151   177   221   216   202    60   107    94    76    96   144   109   156   217   139    -1   138   170   177   173   240   235   245   255   274   291   249   209   189   181   218   271   282   251   284   208   277   102   217 99999 99999 99999 99999 99999 99999 99999 99999 99999 99999 99999 99999 99999 99999 99999 99999 99999 99999 99999 99999 99999 99999 99999 99999 99999 99999 99999 99999 99999 99999 99999 99999 99999 99999 99999 99999 99999 99999 99999
    13    39    95    78   115    87   134   121    62    56   104    29    76   112    25    27    -1    32    39    35   116   130   107   117   136   153   111    71    51    43    80   133   162   113   154   106   172    49    79 99999 99999 99999 99999 99999 99999 99999 99999 99999 99999 99999 99999 99999 99999 99999 99999 99999 99999 99999 99999 99999 99999 99999 99999 99999 99999 99999 99999 99999 99999 99999 99999 99999 99999 99999 99999 99999 99999 99999
    38    48   104    87   124   119   166   153    94    88   136    61   108   118    31    59    32    -1     7    16   123   136   114   124   143   160   118    78    58    50    87   140   169   120   161   115   178    81    88 99999 99999 99999 99999 99999 99999 99999 99999 99999 99999 99999 99999 99999 99999 99999 99999 99999 99999 99999 99999 99999 99999 99999 99999 99999 99999 99999 99999 99999 99999 99999 99999 99999 99999 99999 99999 99999 99999 99999
    31    41    97    80   117   115   162   149    90    84   132    57   104   114    27    55    28     7    -1     9   116   132   107   117   136   153   111    71    51    43    80   133   162   113   154   108   174    77    81 99999 99999 99999 99999 99999 99999 99999 99999 99999 99999 99999 99999 99999 99999 99999 99999 99999 99999 99999 99999 99999 99999 99999 99999 99999 99999 99999 99999 99999 99999 99999 99999 99999 99999 99999 99999 99999 99999 99999
    22    32    88    71   108   122   169   156    97    91   139    64   111   123    36    62    35    16     9    -1   107   141    98   108   127   144   102    62    42    34    71   124   153   104   145    99   166    84    72 99999 99999 99999 99999 99999 99999 99999 99999 99999 99999 99999 99999 99999 99999 99999 99999 99999 99999 99999 99999 99999 99999 99999 99999 99999 99999 99999 99999 99999 99999 99999 99999 99999 99999 99999 99999 99999 99999 99999
   108   134   190   173   210   133   180   167    99    93   113    66    85    60    96    96    95   127   134   130    -1    46    63   116   135   162   147   166   146   138   175   221   257   208   249   201   120    86   174 99999 99999 99999 99999 99999 99999 99999 99999 99999 99999 99999 99999 99999 99999 99999 99999 99999 99999 99999 99999 99999 99999 99999 99999 99999 99999 99999 99999 99999 99999 99999 99999 99999 99999 99999 99999 99999 99999 99999
   127   153   209   192   229   152   199   186   118   112   132    85   104    79   115   115   114   146   153   149    19    -1    17    70    89   116   101   135   148   157   137   175   219   183   211   220    85   105   193 99999 99999 99999 99999 99999 99999 99999 99999 99999 99999 99999 99999 99999 99999 99999 99999 99999 99999 99999 99999 99999 99999 99999 99999 99999 99999 99999 99999 99999 99999 99999 99999 99999 99999 99999 99999 99999 99999 99999
   153   179   235   218   255   178   225   212   144   138   158   111   130   105   141   141   140   172   179   175    45    57    -1    53    72    99    84   118   131   183   120   158   202   166   194   241    68   131   214 99999 99999 99999 99999 99999 99999 99999 99999 99999 99999 99999 99999 99999 99999 99999 99999 99999 99999 99999 99999 99999 99999 99999 99999 99999 99999 99999 99999 99999 99999 99999 99999 99999 99999 99999 99999 99999 99999 99999
   179   165   199   204   219   243   290   277   209   203   223   176   195   165   206   206   192   199   192   183   110   112    82    -1    19    46    31    65    78   149    67   105   149   113   141   188    95   196   161 99999 99999 99999 99999 99999 99999 99999 99999 99999 99999 99999 99999 99999 99999 99999 99999 99999 99999 99999 99999 99999 99999 99999 99999 99999 99999 99999 99999 99999 99999 99999 99999 99999 99999 99999 99999 99999 99999 99999
   212   205   239   244   259   237   284   271   203   197   217   170   189   146   200   200   199   231   232   223   104    93    63    40    -1    67    71   105   118   189   107   117   167   153   181   228    76   190   201 99999 99999 99999 99999 99999 99999 99999 99999 99999 99999 99999 99999 99999 99999 99999 99999 99999 99999 99999 99999 99999 99999 99999 99999 99999 99999 99999 99999 99999 99999 99999 99999 99999 99999 99999 99999 99999 99999 99999
   184   170   204   209   224   248   295   282   214   208   228   181   200   175   211   211   197   204   197   188   115   150   106    72    57    -1    36    70    83   154    72    59   109   118   146   193   133   201   166 99999 99999 99999 99999 99999 99999 99999 99999 99999 99999 99999 99999 99999 99999 99999 99999 99999 99999 99999 99999 99999 99999 99999 99999 99999 99999 99999 99999 99999 99999 99999 99999 99999 99999 99999 99999 99999 99999 99999
   148   134   168   173   188   212   259   246   178   172   192   145   164   139   175   175   161   168   161   152    79   125    70    36    55    82    -1    34    47   118    36    89   118    82   110   157   131   165   130 99999 99999 99999 99999 99999 99999 99999 99999 99999 99999 99999 99999 99999 99999 99999 99999 99999 99999 99999 99999 99999 99999 99999 99999 99999 99999 99999 99999 99999 99999 99999 99999 99999 99999 99999 99999 99999 99999 99999
   153   146   180   185   200   178   225   212   144   138   158   111   130   105   141   141   140   172   173   164    45    91    36    46    65    92    77    -1    59   130    48   101   130    94   122   169   104   131   142 99999 99999 99999 99999 99999 99999 99999 99999 99999 99999 99999 99999 99999 99999 99999 99999 99999 99999 99999 99999 99999 99999 99999 99999 99999 99999 99999 99999 99999 99999 99999 99999 99999 99999 99999 99999 99999 99999 99999
   173   166   200   205   220   198   245   232   164   158   178   131   150   125   161   161   160   192   193   184    65   111    56    66    85   112    97    20    -1   150    68   121   150   114   142   189   124   151   162 99999 99999 99999 99999 99999 99999 99999 99999 99999 99999 99999 99999 99999 99999 99999 99999 99999 99999 99999 99999 99999 99999 99999 99999 99999 99999 99999 99999 99999 99999 99999 99999 99999 99999 99999 99999 99999 99999 99999
    30    16    72    55    92   125   172   156   105    99   147    72   119   133    68    70    43    50    43    34    73   119    64    74    93   110    68    28     8    -1    37    90   119    70   111    83   132    92    56 99999 99999 99999 99999 99999 99999 99999 99999 99999 99999 99999 99999 99999 99999 99999 99999 99999 99999 99999 99999 99999 99999 99999 99999 99999 99999 99999 99999 99999 99999 99999 99999 99999 99999 99999 99999 99999 99999 99999
   112    98   132   137   152   185   232   216   187   181   223   154   195   170   150   152   125   132   125   116   110   156   101    67    86    73    31    65    78    82    -1    53    82    46    74   121   162   174    94 99999 99999 99999 99999 99999 99999 99999 99999 99999 99999 99999 99999 99999 99999 99999 99999 99999 99999 99999 99999 99999 99999 99999 99999 99999 99999 99999 99999 99999 99999 99999 99999 99999 99999 99999 99999 99999 99999 99999
   144   130   164   169   184   217   256   225   219   213   261   186   233   234   182   184   157   164   157   148   174   209   165   131   116    59    95   129   122   114    93    -1    50    78    92   147   192   206   126 99999 99999 99999 99999 99999 99999 99999 99999 99999 99999 99999 99999 99999 99999 99999 99999 99999 99999 99999 99999 99999 99999 99999 99999 99999 99999 99999 99999 99999 99999 99999 99999 99999 99999 99999 99999 99999 99999 99999
    94    80   114   119   134   167   214   198   169   163   211   136   183   197   132   134   107   114   107    98   137   183   128   110   129    81    74    92    72    64    43    57    -1    28    56   103   196   156    76 99999 99999 99999 99999 99999 99999 99999 99999 99999 99999 99999 99999 99999 99999 99999 99999 99999 99999 99999 99999 99999 99999 99999 99999 99999 99999 99999 99999 99999 99999 99999 99999 99999 99999 99999 99999 99999 99999 99999
    66    52   101    91   121   154   201   185   141   135   183   108   155   169   104   106    79    86    79    70   109   155   100    82   101    88    46    64    44    36    15    68    97    -1    89    90   168   128    63 99999 99999 99999 99999 99999 99999 99999 99999 99999 99999 99999 99999 99999 99999 99999 99999 99999 99999 99999 99999 99999 99999 99999 99999 99999 99999 99999 99999 99999 99999 99999 99999 99999 99999 99999 99999 99999 99999 99999
   129   124    86   102   106   139   186   170   173   193   241   171   218   241   167   139   142   158   151   142   181   227   172   154   173   160   118   136   116   108    87   140   168    72    -1    75   240   191    48 99999 99999 99999 99999 99999 99999 99999 99999 99999 99999 99999 99999 99999 99999 99999 99999 99999 99999 99999 99999 99999 99999 99999 99999 99999 99999 99999 99999 99999 99999 99999 99999 99999 99999 99999 99999 99999 99999 99999
   113   108    70    86    51    84   131   115   118   138   186   151   198   225   151   123   126   142   135   126   165   211   156   138   157   144   102   120   100    92    71   124    93    56    95    -1   224   144    32 99999 99999 99999 99999 99999 99999 99999 99999 99999 99999 99999 99999 99999 99999 99999 99999 99999 99999 99999 99999 99999 99999 99999 99999 99999 99999 99999 99999 99999 99999 99999 99999 99999 99999 99999 99999 99999 99999 99999
   146   172   228   211   248   171   218   205   137   131   151   104   123    80   134   134   133   165   172   168    38    27    44    75    76   121   106   140   153   176   142   180   224   188   216   239    -1   124   212 99999 99999 99999 99999 99999 99999 99999 99999 99999 99999 99999 99999 99999 99999 99999 99999 99999 99999 99999 99999 99999 99999 99999 99999 99999 99999 99999 99999 99999 99999 99999 99999 99999 99999 99999 99999 99999 99999 99999
   102   128   184   167   203    61   108    95    27     7    55    60   107   165    90    90    89   121   128   124   191   186   196   206   225   242   200   160   140   132   169   222   251   202   243   195   228    -1   168 99999 99999 99999 99999 99999 99999 99999 99999 99999 99999 99999 99999 99999 99999 99999 99999 99999 99999 99999 99999 99999 99999 99999 99999 99999 99999 99999 99999 99999 99999 99999 99999 99999 99999 99999 99999 99999 99999 99999
    81    95    38    54    58    91   138   122   125   145   193   123   170   206   119    91    94   119   112   103   184   224   175   165   184   171   129   139   119   111    98   151   120    83   122    27   243   143    -1 99999 99999 99999 99999 99999 99999 99999 99999 99999 99999 99999 99999 99999 99999 99999 99999 99999 99999 99999 99999 99999 99999 99999 99999 99999 99999 99999 99999 99999 99999 99999 99999 99999 99999 99999 99999 99999 99999 99999
EOF